NAME          
ROWS
 N  OBJ
 L  c1
 L  c2
 L  c3
 L  c4
 L  c5
COLUMNS
    MARKER    'MARKER'                 'INTORG'
    x[1]      c1        141
    x[1]      c2        155
    x[1]      c3        622
    x[1]      c4        407
    x[1]      c5        608
    x[1]      OBJ       -814
    x[2]      c1        270
    x[2]      c2        200
    x[2]      c3        140
    x[2]      c4        823
    x[2]      c5        574
    x[2]      OBJ       -267
    x[3]      c1        250
    x[3]      c2        906
    x[3]      c3        455
    x[3]      c4        361
    x[3]      c5        64
    x[3]      OBJ       -159
    x[4]      c1        856
    x[4]      c2        463
    x[4]      c3        899
    x[4]      c4        727
    x[4]      c5        918
    x[4]      OBJ       -8
    x[5]      c1        96
    x[5]      c2        242
    x[5]      c3        306
    x[5]      c4        45
    x[5]      c5        600
    x[5]      OBJ       -863
    x[6]      c1        444
    x[6]      c2        671
    x[6]      c3        279
    x[6]      c4        419
    x[6]      c5        266
    x[6]      OBJ       -550
    x[7]      c1        305
    x[7]      c2        52
    x[7]      c3        481
    x[7]      c4        51
    x[7]      c5        649
    x[7]      OBJ       -114
    x[8]      c1        548
    x[8]      c2        548
    x[8]      c3        594
    x[8]      c4        322
    x[8]      c5        931
    x[8]      OBJ       -944
    x[9]      c1        649
    x[9]      c2        505
    x[9]      c3        694
    x[9]      c4        226
    x[9]      c5        930
    x[9]      OBJ       -159
    x[10]     c1        475
    x[10]     c2        941
    x[10]     c3        706
    x[10]     c4        335
    x[10]     c5        134
    x[10]     OBJ       -20
    x[11]     c1        267
    x[11]     c2        972
    x[11]     c3        996
    x[11]     c4        40
    x[11]     c5        69
    x[11]     OBJ       -725
    x[12]     c1        778
    x[12]     c2        394
    x[12]     c3        358
    x[12]     c4        218
    x[12]     c5        841
    x[12]     OBJ       -492
    x[13]     c1        560
    x[13]     c2        199
    x[13]     c3        436
    x[13]     c4        684
    x[13]     c5        125
    x[13]     OBJ       -312
    x[14]     c1        954
    x[14]     c2        130
    x[14]     c3        971
    x[14]     c4        835
    x[14]     c5        469
    x[14]     OBJ       -286
    x[15]     c1        21
    x[15]     c2        264
    x[15]     c3        601
    x[15]     c4        496
    x[15]     c5        23
    x[15]     OBJ       -491
    x[16]     c1        735
    x[16]     c2        638
    x[16]     c3        363
    x[16]     c4        495
    x[16]     c5        956
    x[16]     OBJ       -788
    x[17]     c1        839
    x[17]     c2        389
    x[17]     c3        943
    x[17]     c4        24
    x[17]     c5        738
    x[17]     OBJ       -882
    x[18]     c1        276
    x[18]     c2        927
    x[18]     c3        717
    x[18]     c4        616
    x[18]     c5        397
    x[18]     OBJ       -164
    x[19]     c1        467
    x[19]     c2        806
    x[19]     c3        448
    x[19]     c4        878
    x[19]     c5        241
    x[19]     OBJ       -302
    x[20]     c1        589
    x[20]     c2        281
    x[20]     c3        250
    x[20]     c4        664
    x[20]     c5        498
    x[20]     OBJ       -58
    x[21]     c1        367
    x[21]     c2        698
    x[21]     c3        76
    x[21]     c4        748
    x[21]     c5        197
    x[21]     OBJ       -256
    x[22]     c1        247
    x[22]     c2        244
    x[22]     c3        5
    x[22]     c4        138
    x[22]     c5        731
    x[22]     OBJ       -835
    x[23]     c1        504
    x[23]     c2        399
    x[23]     c3        539
    x[23]     c4        270
    x[23]     c5        408
    x[23]     OBJ       -111
    x[24]     c1        938
    x[24]     c2        300
    x[24]     c3        755
    x[24]     c4        637
    x[24]     c5        686
    x[24]     OBJ       -182
    x[25]     c1        453
    x[25]     c2        760
    x[25]     c3        656
    x[25]     c4        239
    x[25]     c5        577
    x[25]     OBJ       -953
    x[26]     c1        488
    x[26]     c2        892
    x[26]     c3        836
    x[26]     c4        851
    x[26]     c5        64
    x[26]     OBJ       -945
    x[27]     c1        209
    x[27]     c2        882
    x[27]     c3        281
    x[27]     c4        807
    x[27]     c5        834
    x[27]     OBJ       -612
    x[28]     c1        265
    x[28]     c2        309
    x[28]     c3        211
    x[28]     c4        761
    x[28]     c5        185
    x[28]     OBJ       -25
    x[29]     c1        298
    x[29]     c2        415
    x[29]     c3        988
    x[29]     c4        926
    x[29]     c5        476
    x[29]     OBJ       -403
    x[30]     c1        981
    x[30]     c2        683
    x[30]     c3        687
    x[30]     c4        463
    x[30]     c5        784
    x[30]     OBJ       -34
    x[31]     c1        274
    x[31]     c2        446
    x[31]     c3        795
    x[31]     c4        253
    x[31]     c5        392
    x[31]     OBJ       -523
    x[32]     c1        551
    x[32]     c2        17
    x[32]     c3        140
    x[32]     c4        798
    x[32]     c5        327
    x[32]     OBJ       -632
    x[33]     c1        427
    x[33]     c2        269
    x[33]     c3        33
    x[33]     c4        702
    x[33]     c5        4
    x[33]     OBJ       -919
    x[34]     c1        301
    x[34]     c2        82
    x[34]     c3        113
    x[34]     c4        450
    x[34]     c5        37
    x[34]     OBJ       -910
    x[35]     c1        363
    x[35]     c2        565
    x[35]     c3        928
    x[35]     c4        459
    x[35]     c5        989
    x[35]     OBJ       -315
    x[36]     c1        427
    x[36]     c2        351
    x[36]     c3        376
    x[36]     c4        6
    x[36]     c5        226
    x[36]     OBJ       -29
    x[37]     c1        158
    x[37]     c2        225
    x[37]     c3        619
    x[37]     c4        777
    x[37]     c5        355
    x[37]     OBJ       -214
    x[38]     c1        615
    x[38]     c2        828
    x[38]     c3        98
    x[38]     c4        445
    x[38]     c5        250
    x[38]     OBJ       -286
    x[39]     c1        998
    x[39]     c2        168
    x[39]     c3        382
    x[39]     c4        52
    x[39]     c5        395
    x[39]     OBJ       -50
    x[40]     c1        523
    x[40]     c2        948
    x[40]     c3        816
    x[40]     c4        270
    x[40]     c5        350
    x[40]     OBJ       -11
    x[41]     c1        273
    x[41]     c2        15
    x[41]     c3        901
    x[41]     c4        49
    x[41]     c5        171
    x[41]     OBJ       -345
    x[42]     c1        145
    x[42]     c2        85
    x[42]     c3        55
    x[42]     c4        588
    x[42]     c5        145
    x[42]     OBJ       -403
    x[43]     c1        405
    x[43]     c2        888
    x[43]     c3        28
    x[43]     c4        770
    x[43]     c5        371
    x[43]     OBJ       -669
    x[44]     c1        744
    x[44]     c2        460
    x[44]     c3        942
    x[44]     c4        463
    x[44]     c5        168
    x[44]     OBJ       -881
    x[45]     c1        411
    x[45]     c2        820
    x[45]     c3        601
    x[45]     c4        853
    x[45]     c5        224
    x[45]     OBJ       -512
RHS
    rhs       c1        10442
    rhs       c2        10716
    rhs       c3        11560
    rhs       c4        10720
    rhs       c5        9688
RANGES
BOUNDS
 BV bounds    x[1]
 BV bounds    x[2]
 BV bounds    x[3]
 BV bounds    x[4]
 BV bounds    x[5]
 BV bounds    x[6]
 BV bounds    x[7]
 BV bounds    x[8]
 BV bounds    x[9]
 BV bounds    x[10]
 BV bounds    x[11]
 BV bounds    x[12]
 BV bounds    x[13]
 BV bounds    x[14]
 BV bounds    x[15]
 BV bounds    x[16]
 BV bounds    x[17]
 BV bounds    x[18]
 BV bounds    x[19]
 BV bounds    x[20]
 BV bounds    x[21]
 BV bounds    x[22]
 BV bounds    x[23]
 BV bounds    x[24]
 BV bounds    x[25]
 BV bounds    x[26]
 BV bounds    x[27]
 BV bounds    x[28]
 BV bounds    x[29]
 BV bounds    x[30]
 BV bounds    x[31]
 BV bounds    x[32]
 BV bounds    x[33]
 BV bounds    x[34]
 BV bounds    x[35]
 BV bounds    x[36]
 BV bounds    x[37]
 BV bounds    x[38]
 BV bounds    x[39]
 BV bounds    x[40]
 BV bounds    x[41]
 BV bounds    x[42]
 BV bounds    x[43]
 BV bounds    x[44]
 BV bounds    x[45]
ENDATA
